(set-info :smt-lib-version 2.6)
(set-logic QF_S)
(set-info :source |
Generated by: Joel Day, Thorsten Ehlers, Mitja Kulczynski, Federico Mora, Florin Manea, Dirk Nowotka, Danny Poulsen, Zhengyang Lu
Application: Test WOORPJE
Target solver: WOORPJE
Publications: Day, J. D., Ehlers, T., Kulczynski, M., Manea, F., Nowotka, D., & Poulsen, D. B. (2019). On solving word equations using SAT. In RP 2019
Description: Transoformed and expanded from Track02
|)
(set-info :license "https://creativecommons.org/licenses/by/4.0/")
(set-info :category "random")
(set-info :status unknown)

(declare-fun S () String)
(declare-fun J () String)
(declare-fun I () String)
(declare-fun R () String)
(declare-fun H () String)
(declare-fun K () String)
(declare-fun G () String)
(declare-fun V () String)
(declare-fun N () String)
(declare-fun M () String)
(declare-fun P () String)
(assert (= (str.++  G "aa" I I I I I "aa" G "aa" I I I I I "ab" J M "b" P P "b" P R "b" S)  (str.++  "a" H H H "a" M K "aa" M K "aaba" N "a" N "a" N "a" N "b" R R R R "b" V V "baa") ))
(check-sat)

(exit)
